Copyright (C) 2013-2015, Filipe Brandao
Build (method = -2)
  #dp: 1601
  Step-3' Graph: 69 vertices and 685 arcs (0.00s)
  Step-4' Graph: 60 vertices and 667 arcs (0.00s)
  #V4/#V3 = 0.87
  #A4/#A3 = 0.97
Ready! (0.00s)
Optimize a model with 109 rows, 668 columns and 1888 nonzeros
Presolve removed 23 rows and 27 columns
Presolve time: 0.01s
Presolved: 86 rows, 641 columns, 1782 nonzeros
Variable types: 0 continuous, 641 integer (190 binary)
Found heuristic solution: objective 88.0000000
Found heuristic solution: objective 76.0000000
Optimize a model with 86 rows, 641 columns and 1782 nonzeros
Presolved: 86 rows, 641 columns, 1782 nonzeros

Root barrier log...

Ordering time: 0.00s

Barrier statistics:
 AA' NZ     : 9.870e+02
 Factor NZ  : 2.283e+03
 Factor Ops : 7.904e+04 (less than 1 second per iteration)
 Threads    : 1

                  Objective                Residual
Iter       Primal          Dual         Primal    Dual     Compl     Time
   0   1.61763552e+03 -3.95380911e+03  6.23e+03 1.23e-01  3.19e+01     0s
   1   4.32984939e+02 -1.29894843e+03  8.85e+02 1.44e-15  4.93e+00     0s
   2   1.22374086e+02 -4.54773291e+02  5.97e+01 1.55e-14  6.38e-01     0s
   3   7.06217925e+01 -6.18798774e+01  2.96e+00 8.72e-15  1.07e-01     0s
   4   5.43994682e+01  1.07020530e+01  8.56e-01 1.07e-14  3.45e-02     0s
   5   4.75204008e+01  2.47706311e+01  3.19e-01 9.34e-15  1.77e-02     0s
   6   4.47695757e+01  3.66283057e+01  2.36e-02 9.88e-15  6.27e-03     0s
   7   4.41922946e+01  4.03529520e+01  1.27e-02 9.36e-15  2.96e-03     0s
   8   4.34428201e+01  4.24145600e+01  1.73e-03 9.50e-15  7.91e-04     0s
   9   4.32612345e+01  4.31742302e+01  9.75e-05 8.87e-15  6.69e-05     0s
  10   4.32501545e+01  4.32495517e+01  3.69e-13 1.15e-14  4.63e-07     0s
  11   4.32500000e+01  4.32500000e+01  4.57e-13 7.58e-15  4.06e-12     0s

Barrier solved model in 11 iterations and 0.00 seconds
Optimal objective 4.32500000e+01


Root relaxation: objective 4.325000e+01, 210 iterations, 0.01 seconds

    Nodes    |    Current Node    |     Objective Bounds      |     Work
 Expl Unexpl |  Obj  Depth IntInf | Incumbent    BestBd   Gap | It/Node Time

     0     0   43.25000    0    6   76.00000   43.25000  43.1%     -    0s
H    0     0                      45.0000000   43.25000  3.89%     -    0s
H    0     0                      44.0000000   43.25000  1.70%     -    0s

Explored 0 nodes (293 simplex iterations) in 0.02 seconds
Thread count was 1 (of 4 available processors)

Optimal solution found (tolerance 0.00e+00)
Best objective 4.400000000000e+01, best bound 4.400000000000e+01, gap 0.0%
Preprocessing time: 0.00 seconds
Gurobi run time: 0.02 seconds
Total run time: 0.02 seconds
Objective: 44
Solution:
2 x [i=1, i=36]
2 x [i=2, i=37]
2 x [i=3, i=37]
1 x [i=4, i=34]
1 x [i=4, i=35]
2 x [i=5, i=32]
1 x [i=6, i=33]
2 x [i=7, i=31]
1 x [i=8, i=30]
2 x [i=9, i=29]
1 x [i=10, i=28]
1 x [i=10, i=30]
2 x [i=11, i=27]
1 x [i=12, i=47, i=49]
1 x [i=13, i=26]
2 x [i=14, i=25]
1 x [i=15, i=24]
1 x [i=15, i=26]
1 x [i=16, i=23]
1 x [i=17, i=43, i=46]
1 x [i=18, i=20]
2 x [i=19, i=20]
1 x [i=19, i=22]
1 x [i=19, i=23]
1 x [i=19, i=46]
3 x [i=21, i=38, i=45]
2 x [i=23, i=39, i=42]
2 x [i=26, i=33, i=46]
1 x [i=30, i=30, i=46]
1 x [i=40, i=41, i=43, i=48]
1 x [i=44, i=46]
